72 72
13 19
10 11
38 4
64 5
59 34
37 25
34 36
52 9
41 14
5 9
45 32
70 36
56 16
15 12
11 22
49 20
31 7
50 33
40 10
4 15
24 18
22 26
32 24
72 3
21 33
43 2
8 1
54 18
26 30
47 24
67 23
44 31
39 16
12 3
46 8
53 35
30 32
20 5
61 35
3 11
51 12
60 13
33 23
48 6
57 21
36 19
28 25
9 22
14 4
25 27
63 31
16 10
6 17
55 15
19 7
7 2
18 28
65 27
71 34
29 17
27 28
66 21
35 20
69 29
42 26
62 13
58 1
17 29
68 6
1 30
23 14
2 8
